61
19
43
26
82
62
96
89
1
18
3
99
63
66
22
30
71
16
55
91
84
7
80
69
4
5
12
50
54
13
97
27
95
65
11
59
67
87
74
48
17
98
2
51
44
0
60
72
79
42
24
37
35
52
34
76
46
70
93
41
25
20
86
92
64
47
31
38
53
6
85
8
81
45
28
32
90
9
33
58
23
56
88
75
78
49
29
36
14
94
73
83
39
40
77
10
15
68
21
57
